c An instance of conditional planning (by rintanen@informatik.uni-freiburg.de)
p cnf 186  1044 
e 99 100 101 102 103 104 105 106 107 108 109 110 111 112 113 114 115 116 117 118 119 120 121 122 123 124 125 126 127 128 129 130 131 132 133 134 135 136 137 138 139 140 141 142 143 144 145 146 147 148 149 150 151 152 153 154 155 156 157 158 159 160 161 0
r 0.5 172 171 170 169 168 173 0
e 1 2 3 4 5 6 7 8 9 10 11 12 13 14 15 16 17 18 19 20 21 22 23 24 25 26 27 28 29 30 31 32 33 34 35 36 37 38 39 40 41 42 43 44 45 46 47 48 49 50 51 52 53 54 55 56 57 58 59 60 61 62 63 64 65 66 67 68 69 70 71 72 73 74 75 76 77 78 79 80 81 82 83 84 85 86 87 88 89 90 91 92 93 94 95 96 97 98 162 163 164 165 166 167 174 175 176 177 178 179 180 181 182 183 184 185 186 0
-169 -170 -171 -172 -173 168 174 0
-169 -170 -171 -172 -173 168 175 0
-169 -170 -171 -172 -173 168 176 0
-169 -170 -171 -172 -173 168 177 0
-169 -170 -171 -172 -173 168 178 0
-169 -170 -171 -172 -173 -179 168 0
-169 -170 -171 -172 -174 168 173 0
-169 -170 -171 -172 168 173 175 0
-169 -170 -171 -172 168 173 176 0
-169 -170 -171 -172 168 173 177 0
-169 -170 -171 -172 168 173 178 0
-169 -170 -171 -172 168 173 179 0
-168 -170 -171 -172 -173 -174 169 0
-168 -170 -171 -172 -173 169 175 0
-168 -170 -171 -172 -173 169 176 0
-168 -170 -171 -172 -173 169 177 0
-168 -170 -171 -172 -173 169 178 0
-168 -170 -171 -172 -173 -179 169 0
-168 -170 -171 -172 169 173 174 0
-168 -170 -171 -172 -175 169 173 0
-168 -170 -171 -172 169 173 176 0
-168 -170 -171 -172 169 173 177 0
-168 -170 -171 -172 169 173 178 0
-168 -170 -171 -172 169 173 179 0
-170 -171 -172 -173 168 169 174 0
-170 -171 -172 -173 -175 168 169 0
-170 -171 -172 -173 168 169 176 0
-170 -171 -172 -173 168 169 177 0
-170 -171 -172 -173 168 169 178 0
-170 -171 -172 -173 -179 168 169 0
-170 -171 -172 -174 168 169 173 0
-170 -171 -172 -175 168 169 173 0
-170 -171 -172 168 169 173 176 0
-170 -171 -172 168 169 173 177 0
-170 -171 -172 168 169 173 178 0
-170 -171 -172 168 169 173 179 0
-168 -169 -171 -172 -173 -174 170 0
-168 -169 -171 -172 -173 -175 170 0
-168 -169 -171 -172 -173 170 176 0
-168 -169 -171 -172 -173 170 177 0
-168 -169 -171 -172 -173 170 178 0
-168 -169 -171 -172 -173 -179 170 0
-168 -169 -171 -172 170 173 174 0
-168 -169 -171 -172 170 173 175 0
-168 -169 -171 -172 -176 170 173 0
-168 -169 -171 -172 170 173 177 0
-168 -169 -171 -172 170 173 178 0
-168 -169 -171 -172 170 173 179 0
-169 -171 -172 -173 168 170 174 0
-169 -171 -172 -173 168 170 175 0
-169 -171 -172 -173 -176 168 170 0
-169 -171 -172 -173 168 170 177 0
-169 -171 -172 -173 168 170 178 0
-169 -171 -172 -173 -179 168 170 0
-169 -171 -172 -174 168 170 173 0
-169 -171 -172 168 170 173 175 0
-169 -171 -172 -176 168 170 173 0
-169 -171 -172 168 170 173 177 0
-169 -171 -172 168 170 173 178 0
-169 -171 -172 168 170 173 179 0
-168 -171 -172 -173 -174 169 170 0
-168 -171 -172 -173 169 170 175 0
-168 -171 -172 -173 -176 169 170 0
-168 -171 -172 -173 169 170 177 0
-168 -171 -172 -173 169 170 178 0
-168 -171 -172 -173 -179 169 170 0
-168 -171 -172 169 170 173 174 0
-168 -171 -172 -175 169 170 173 0
-168 -171 -172 -176 169 170 173 0
-168 -171 -172 169 170 173 177 0
-168 -171 -172 169 170 173 178 0
-168 -171 -172 169 170 173 179 0
-171 -172 -173 168 169 170 174 0
-171 -172 -173 -175 168 169 170 0
-171 -172 -173 -176 168 169 170 0
-171 -172 -173 168 169 170 177 0
-171 -172 -173 168 169 170 178 0
-171 -172 -173 -179 168 169 170 0
-171 -172 -174 168 169 170 173 0
-171 -172 -175 168 169 170 173 0
-171 -172 -176 168 169 170 173 0
-171 -172 168 169 170 173 177 0
-171 -172 168 169 170 173 178 0
-171 -172 168 169 170 173 179 0
-168 -169 -170 -172 -173 -174 171 0
-168 -169 -170 -172 -173 -175 171 0
-168 -169 -170 -172 -173 -176 171 0
-168 -169 -170 -172 -173 171 177 0
-168 -169 -170 -172 -173 171 178 0
-168 -169 -170 -172 -173 -179 171 0
-168 -169 -170 -172 171 173 174 0
-168 -169 -170 -172 171 173 175 0
-168 -169 -170 -172 171 173 176 0
-168 -169 -170 -172 -177 171 173 0
-168 -169 -170 -172 171 173 178 0
-168 -169 -170 -172 171 173 179 0
-169 -170 -172 -173 168 171 174 0
-169 -170 -172 -173 168 171 175 0
-169 -170 -172 -173 168 171 176 0
-169 -170 -172 -173 -177 168 171 0
-169 -170 -172 -173 168 171 178 0
-169 -170 -172 -173 -179 168 171 0
-169 -170 -172 -174 168 171 173 0
-169 -170 -172 168 171 173 175 0
-169 -170 -172 168 171 173 176 0
-169 -170 -172 -177 168 171 173 0
-169 -170 -172 168 171 173 178 0
-169 -170 -172 168 171 173 179 0
-168 -170 -172 -173 -174 169 171 0
-168 -170 -172 -173 169 171 175 0
-168 -170 -172 -173 169 171 176 0
-168 -170 -172 -173 -177 169 171 0
-168 -170 -172 -173 169 171 178 0
-168 -170 -172 -173 -179 169 171 0
-168 -170 -172 169 171 173 174 0
-168 -170 -172 -175 169 171 173 0
-168 -170 -172 169 171 173 176 0
-168 -170 -172 -177 169 171 173 0
-168 -170 -172 169 171 173 178 0
-168 -170 -172 169 171 173 179 0
-170 -172 -173 168 169 171 174 0
-170 -172 -173 -175 168 169 171 0
-170 -172 -173 168 169 171 176 0
-170 -172 -173 -177 168 169 171 0
-170 -172 -173 168 169 171 178 0
-170 -172 -173 -179 168 169 171 0
-170 -172 -174 168 169 171 173 0
-170 -172 -175 168 169 171 173 0
-170 -172 168 169 171 173 176 0
-170 -172 -177 168 169 171 173 0
-170 -172 168 169 171 173 178 0
-170 -172 168 169 171 173 179 0
-168 -169 -172 -173 -174 170 171 0
-168 -169 -172 -173 -175 170 171 0
-168 -169 -172 -173 170 171 176 0
-168 -169 -172 -173 -177 170 171 0
-168 -169 -172 -173 170 171 178 0
-168 -169 -172 -173 -179 170 171 0
-168 -169 -172 170 171 173 174 0
-168 -169 -172 170 171 173 175 0
-168 -169 -172 -176 170 171 173 0
-168 -169 -172 -177 170 171 173 0
-168 -169 -172 170 171 173 178 0
-168 -169 -172 170 171 173 179 0
-169 -172 -173 168 170 171 174 0
-169 -172 -173 168 170 171 175 0
-169 -172 -173 -176 168 170 171 0
-169 -172 -173 -177 168 170 171 0
-169 -172 -173 168 170 171 178 0
-169 -172 -173 -179 168 170 171 0
-169 -172 -174 168 170 171 173 0
-169 -172 168 170 171 173 175 0
-169 -172 -176 168 170 171 173 0
-169 -172 -177 168 170 171 173 0
-169 -172 168 170 171 173 178 0
-169 -172 168 170 171 173 179 0
-168 -172 -173 -174 169 170 171 0
-168 -172 -173 169 170 171 175 0
-168 -172 -173 -176 169 170 171 0
-168 -172 -173 -177 169 170 171 0
-168 -172 -173 169 170 171 178 0
-168 -172 -173 -179 169 170 171 0
-168 -172 169 170 171 173 174 0
-168 -172 -175 169 170 171 173 0
-168 -172 -176 169 170 171 173 0
-168 -172 -177 169 170 171 173 0
-168 -172 169 170 171 173 178 0
-168 -172 169 170 171 173 179 0
-172 -173 168 169 170 171 174 0
-172 -173 -175 168 169 170 171 0
-172 -173 -176 168 169 170 171 0
-172 -173 -177 168 169 170 171 0
-172 -173 168 169 170 171 178 0
-172 -173 -179 168 169 170 171 0
-172 -174 168 169 170 171 173 0
-172 -175 168 169 170 171 173 0
-172 -176 168 169 170 171 173 0
-172 -177 168 169 170 171 173 0
-172 168 169 170 171 173 178 0
-172 168 169 170 171 173 179 0
-168 -169 -170 -171 -173 -174 172 0
-168 -169 -170 -171 -173 -175 172 0
-168 -169 -170 -171 -173 -176 172 0
-168 -169 -170 -171 -173 -177 172 0
-168 -169 -170 -171 -173 172 178 0
-168 -169 -170 -171 -173 -179 172 0
-168 -169 -170 -171 172 173 174 0
-168 -169 -170 -171 172 173 175 0
-168 -169 -170 -171 172 173 176 0
-168 -169 -170 -171 172 173 177 0
-168 -169 -170 -171 -178 172 173 0
-168 -169 -170 -171 172 173 179 0
-169 -170 -171 -173 168 172 174 0
-169 -170 -171 -173 168 172 175 0
-169 -170 -171 -173 168 172 176 0
-169 -170 -171 -173 168 172 177 0
-169 -170 -171 -173 -178 168 172 0
-169 -170 -171 -173 -179 168 172 0
-169 -170 -171 -174 168 172 173 0
-169 -170 -171 168 172 173 175 0
-169 -170 -171 168 172 173 176 0
-169 -170 -171 168 172 173 177 0
-169 -170 -171 -178 168 172 173 0
-169 -170 -171 168 172 173 179 0
-168 -170 -171 -173 -174 169 172 0
-168 -170 -171 -173 169 172 175 0
-168 -170 -171 -173 169 172 176 0
-168 -170 -171 -173 169 172 177 0
-168 -170 -171 -173 -178 169 172 0
-168 -170 -171 -173 -179 169 172 0
-168 -170 -171 169 172 173 174 0
-168 -170 -171 -175 169 172 173 0
-168 -170 -171 169 172 173 176 0
-168 -170 -171 169 172 173 177 0
-168 -170 -171 -178 169 172 173 0
-168 -170 -171 169 172 173 179 0
-170 -171 -173 168 169 172 174 0
-170 -171 -173 -175 168 169 172 0
-170 -171 -173 168 169 172 176 0
-170 -171 -173 168 169 172 177 0
-170 -171 -173 -178 168 169 172 0
-170 -171 -173 -179 168 169 172 0
-170 -171 -174 168 169 172 173 0
-170 -171 -175 168 169 172 173 0
-170 -171 168 169 172 173 176 0
-170 -171 168 169 172 173 177 0
-170 -171 -178 168 169 172 173 0
-170 -171 168 169 172 173 179 0
-168 -169 -171 -173 -174 170 172 0
-168 -169 -171 -173 -175 170 172 0
-168 -169 -171 -173 170 172 176 0
-168 -169 -171 -173 170 172 177 0
-168 -169 -171 -173 -178 170 172 0
-168 -169 -171 -173 -179 170 172 0
-168 -169 -171 170 172 173 174 0
-168 -169 -171 170 172 173 175 0
-168 -169 -171 -176 170 172 173 0
-168 -169 -171 170 172 173 177 0
-168 -169 -171 -178 170 172 173 0
-168 -169 -171 170 172 173 179 0
-169 -171 -173 168 170 172 174 0
-169 -171 -173 168 170 172 175 0
-169 -171 -173 -176 168 170 172 0
-169 -171 -173 168 170 172 177 0
-169 -171 -173 -178 168 170 172 0
-169 -171 -173 -179 168 170 172 0
-169 -171 -174 168 170 172 173 0
-169 -171 168 170 172 173 175 0
-169 -171 -176 168 170 172 173 0
-169 -171 168 170 172 173 177 0
-169 -171 -178 168 170 172 173 0
-169 -171 168 170 172 173 179 0
-168 -171 -173 -174 169 170 172 0
-168 -171 -173 169 170 172 175 0
-168 -171 -173 -176 169 170 172 0
-168 -171 -173 169 170 172 177 0
-168 -171 -173 -178 169 170 172 0
-168 -171 -173 -179 169 170 172 0
-168 -171 169 170 172 173 174 0
-168 -171 -175 169 170 172 173 0
-168 -171 -176 169 170 172 173 0
-168 -171 169 170 172 173 177 0
-168 -171 -178 169 170 172 173 0
-168 -171 169 170 172 173 179 0
-171 -173 168 169 170 172 174 0
-171 -173 -175 168 169 170 172 0
-171 -173 -176 168 169 170 172 0
-171 -173 168 169 170 172 177 0
-171 -173 -178 168 169 170 172 0
-171 -173 -179 168 169 170 172 0
-171 -174 168 169 170 172 173 0
-171 -175 168 169 170 172 173 0
-171 -176 168 169 170 172 173 0
-171 168 169 170 172 173 177 0
-171 -178 168 169 170 172 173 0
-171 168 169 170 172 173 179 0
-168 -169 -170 -173 -174 171 172 0
-168 -169 -170 -173 -175 171 172 0
-168 -169 -170 -173 -176 171 172 0
-168 -169 -170 -173 171 172 177 0
-168 -169 -170 -173 -178 171 172 0
-168 -169 -170 -173 -179 171 172 0
-168 -169 -170 171 172 173 174 0
-168 -169 -170 171 172 173 175 0
-168 -169 -170 171 172 173 176 0
-168 -169 -170 -177 171 172 173 0
-168 -169 -170 -178 171 172 173 0
-168 -169 -170 171 172 173 179 0
-169 -170 -173 168 171 172 174 0
-169 -170 -173 168 171 172 175 0
-169 -170 -173 168 171 172 176 0
-169 -170 -173 -177 168 171 172 0
-169 -170 -173 -178 168 171 172 0
-169 -170 -173 -179 168 171 172 0
-169 -170 -174 168 171 172 173 0
-169 -170 168 171 172 173 175 0
-169 -170 168 171 172 173 176 0
-169 -170 -177 168 171 172 173 0
-169 -170 -178 168 171 172 173 0
-169 -170 168 171 172 173 179 0
-168 -170 -173 -174 169 171 172 0
-168 -170 -173 169 171 172 175 0
-168 -170 -173 169 171 172 176 0
-168 -170 -173 -177 169 171 172 0
-168 -170 -173 -178 169 171 172 0
-168 -170 -173 -179 169 171 172 0
-168 -170 169 171 172 173 174 0
-168 -170 -175 169 171 172 173 0
-168 -170 169 171 172 173 176 0
-168 -170 -177 169 171 172 173 0
-168 -170 -178 169 171 172 173 0
-168 -170 169 171 172 173 179 0
-170 -173 168 169 171 172 174 0
-170 -173 -175 168 169 171 172 0
-170 -173 168 169 171 172 176 0
-170 -173 -177 168 169 171 172 0
-170 -173 -178 168 169 171 172 0
-170 -173 -179 168 169 171 172 0
-170 -174 168 169 171 172 173 0
-170 -175 168 169 171 172 173 0
-170 168 169 171 172 173 176 0
-170 -177 168 169 171 172 173 0
-170 -178 168 169 171 172 173 0
-170 168 169 171 172 173 179 0
-168 -169 -173 -174 170 171 172 0
-168 -169 -173 -175 170 171 172 0
-168 -169 -173 170 171 172 176 0
-168 -169 -173 -177 170 171 172 0
-168 -169 -173 -178 170 171 172 0
-168 -169 -173 -179 170 171 172 0
-168 -169 170 171 172 173 174 0
-168 -169 170 171 172 173 175 0
-168 -169 -176 170 171 172 173 0
-168 -169 -177 170 171 172 173 0
-168 -169 -178 170 171 172 173 0
-168 -169 170 171 172 173 179 0
-169 -173 168 170 171 172 174 0
-169 -173 168 170 171 172 175 0
-169 -173 -176 168 170 171 172 0
-169 -173 -177 168 170 171 172 0
-169 -173 -178 168 170 171 172 0
-169 -173 -179 168 170 171 172 0
-169 -174 168 170 171 172 173 0
-169 168 170 171 172 173 175 0
-169 -176 168 170 171 172 173 0
-169 -177 168 170 171 172 173 0
-169 -178 168 170 171 172 173 0
-169 168 170 171 172 173 179 0
-168 -173 -174 169 170 171 172 0
-168 -173 169 170 171 172 175 0
-168 -173 -176 169 170 171 172 0
-168 -173 -177 169 170 171 172 0
-168 -173 -178 169 170 171 172 0
-168 -173 -179 169 170 171 172 0
-168 169 170 171 172 173 174 0
-168 -175 169 170 171 172 173 0
-168 -176 169 170 171 172 173 0
-168 -177 169 170 171 172 173 0
-168 -178 169 170 171 172 173 0
-168 169 170 171 172 173 179 0
-173 168 169 170 171 172 174 0
-173 -175 168 169 170 171 172 0
-173 -176 168 169 170 171 172 0
-173 -177 168 169 170 171 172 0
-173 -178 168 169 170 171 172 0
-173 -179 168 169 170 171 172 0
-174 168 169 170 171 172 173 0
-175 168 169 170 171 172 173 0
-176 168 169 170 171 172 173 0
-177 168 169 170 171 172 173 0
-178 168 169 170 171 172 173 0
168 169 170 171 172 173 179 0
-168 -169 -170 -171 -172 173 174 0
-168 -169 -170 -171 -172 173 175 0
-168 -169 -170 -171 -172 173 176 0
-168 -169 -170 -171 -172 173 177 0
-168 -169 -170 -171 -172 173 178 0
-168 -169 -170 -171 -172 173 179 0
-180 0
-181 0
-182 0
-183 0
-184 0
-185 0
-186 0
-99 -186 0
-99 -180 0
-9 -100 0
-1 -100 0
-10 -101 0
-2 -101 0
-11 -102 0
-3 -102 0
-12 -103 0
-4 -103 0
-13 -104 0
-5 -104 0
-14 -105 0
-6 -105 0
-15 -106 0
-7 -106 0
-108 -181 0
-108 -186 0
-24 -109 0
-9 -109 0
-25 -110 0
-10 -110 0
-26 -111 0
-11 -111 0
-27 -112 0
-12 -112 0
-28 -113 0
-13 -113 0
-29 -114 0
-14 -114 0
-30 -115 0
-15 -115 0
-117 -182 0
-117 -186 0
-39 -118 0
-9 -118 0
-40 -119 0
-10 -119 0
-41 -120 0
-11 -120 0
-42 -121 0
-12 -121 0
-43 -122 0
-13 -122 0
-44 -123 0
-14 -123 0
-45 -124 0
-15 -124 0
-126 -183 0
-126 -186 0
-54 -127 0
-9 -127 0
-55 -128 0
-10 -128 0
-56 -129 0
-11 -129 0
-57 -130 0
-12 -130 0
-58 -131 0
-13 -131 0
-59 -132 0
-14 -132 0
-60 -133 0
-15 -133 0
-135 -184 0
-135 -186 0
-69 -136 0
-9 -136 0
-70 -137 0
-10 -137 0
-71 -138 0
-11 -138 0
-72 -139 0
-12 -139 0
-73 -140 0
-13 -140 0
-74 -141 0
-14 -141 0
-75 -142 0
-15 -142 0
-144 -185 0
-144 -186 0
-84 -146 0
-9 -146 0
-85 -148 0
-10 -148 0
-86 -150 0
-11 -150 0
-87 -152 0
-12 -152 0
-88 -154 0
-13 -154 0
-89 -156 0
-14 -156 0
-90 -158 0
-15 -158 0
-145 186 0
-147 9 0
-149 10 0
-151 11 0
-153 12 0
-155 13 0
-157 14 0
-159 15 0
-99 9 0
-17 -99 0
-99 1 0
-100 10 0
-18 -100 0
-100 2 0
-101 11 0
-19 -101 0
-101 3 0
-102 12 0
-20 -102 0
-102 4 0
-103 13 0
-21 -103 0
-103 5 0
-104 14 0
-22 -104 0
-104 6 0
-105 15 0
-23 -105 0
-105 7 0
-106 16 0
-106 -162 0
-106 8 0
-108 24 0
-32 -108 0
-108 9 0
-109 25 0
-33 -109 0
-109 10 0
-110 26 0
-34 -110 0
-110 11 0
-111 27 0
-35 -111 0
-111 12 0
-112 28 0
-36 -112 0
-112 13 0
-113 29 0
-37 -113 0
-113 14 0
-114 30 0
-38 -114 0
-114 15 0
-115 31 0
-115 -163 0
-115 16 0
-117 39 0
-47 -117 0
-117 9 0
-118 40 0
-48 -118 0
-118 10 0
-119 41 0
-49 -119 0
-119 11 0
-120 42 0
-50 -120 0
-120 12 0
-121 43 0
-51 -121 0
-121 13 0
-122 44 0
-52 -122 0
-122 14 0
-123 45 0
-53 -123 0
-123 15 0
-124 46 0
-124 -164 0
-124 16 0
-126 54 0
-62 -126 0
-126 9 0
-127 55 0
-63 -127 0
-127 10 0
-128 56 0
-64 -128 0
-128 11 0
-129 57 0
-65 -129 0
-129 12 0
-130 58 0
-66 -130 0
-130 13 0
-131 59 0
-67 -131 0
-131 14 0
-132 60 0
-68 -132 0
-132 15 0
-133 61 0
-133 -165 0
-133 16 0
-135 69 0
-77 -135 0
-135 9 0
-136 70 0
-78 -136 0
-136 10 0
-137 71 0
-79 -137 0
-137 11 0
-138 72 0
-80 -138 0
-138 12 0
-139 73 0
-81 -139 0
-139 13 0
-140 74 0
-82 -140 0
-140 14 0
-141 75 0
-83 -141 0
-141 15 0
-142 76 0
-142 -166 0
-142 16 0
-144 84 0
-92 -144 0
-144 9 0
-146 85 0
-93 -146 0
-146 10 0
-148 86 0
-94 -148 0
-148 11 0
-150 87 0
-95 -150 0
-150 12 0
-152 88 0
-96 -152 0
-152 13 0
-154 89 0
-97 -154 0
-154 14 0
-156 90 0
-98 -156 0
-156 15 0
-158 91 0
-158 -167 0
-158 16 0
-9 -145 0
-10 -147 0
-11 -149 0
-12 -151 0
-13 -153 0
-14 -155 0
-15 -157 0
-16 -159 0
-1 99 180 0
-2 1 100 0
-3 2 101 0
-4 3 102 0
-5 4 103 0
-6 5 104 0
-7 6 105 0
-8 7 106 0
-180 1 0
-1 2 0
-2 3 0
-3 4 0
-4 5 0
-5 6 0
-6 7 0
-7 8 0
-9 99 108 117 126 135 144 186 0
-10 9 100 109 118 127 136 146 0
-11 10 101 110 119 128 137 148 0
-12 11 102 111 120 129 138 150 0
-13 12 103 112 121 130 139 152 0
-14 13 104 113 122 131 140 154 0
-15 14 105 114 123 132 141 156 0
-16 15 106 115 124 133 142 158 0
-186 9 145 0
-9 10 147 0
-10 11 149 0
-11 12 151 0
-12 13 153 0
-13 14 155 0
-14 15 157 0
-15 16 159 0
-17 179 0
-18 17 0
-19 18 0
-20 19 0
-21 20 0
-22 21 0
-23 22 0
-162 23 0
-179 17 99 0
-17 18 100 0
-18 19 101 0
-19 20 102 0
-20 21 103 0
-21 22 104 0
-22 23 105 0
-23 106 162 0
-24 108 181 0
-25 24 109 0
-26 25 110 0
-27 26 111 0
-28 27 112 0
-29 28 113 0
-30 29 114 0
-31 30 115 0
-181 24 0
-24 25 0
-25 26 0
-26 27 0
-27 28 0
-28 29 0
-29 30 0
-30 31 0
-32 174 0
-33 32 0
-34 33 0
-35 34 0
-36 35 0
-37 36 0
-38 37 0
-163 38 0
-174 32 108 0
-32 33 109 0
-33 34 110 0
-34 35 111 0
-35 36 112 0
-36 37 113 0
-37 38 114 0
-38 115 163 0
-39 117 182 0
-40 39 118 0
-41 40 119 0
-42 41 120 0
-43 42 121 0
-44 43 122 0
-45 44 123 0
-46 45 124 0
-182 39 0
-39 40 0
-40 41 0
-41 42 0
-42 43 0
-43 44 0
-44 45 0
-45 46 0
-47 175 0
-48 47 0
-49 48 0
-50 49 0
-51 50 0
-52 51 0
-53 52 0
-164 53 0
-175 47 117 0
-47 48 118 0
-48 49 119 0
-49 50 120 0
-50 51 121 0
-51 52 122 0
-52 53 123 0
-53 124 164 0
-54 126 183 0
-55 54 127 0
-56 55 128 0
-57 56 129 0
-58 57 130 0
-59 58 131 0
-60 59 132 0
-61 60 133 0
-183 54 0
-54 55 0
-55 56 0
-56 57 0
-57 58 0
-58 59 0
-59 60 0
-60 61 0
-62 176 0
-63 62 0
-64 63 0
-65 64 0
-66 65 0
-67 66 0
-68 67 0
-165 68 0
-176 62 126 0
-62 63 127 0
-63 64 128 0
-64 65 129 0
-65 66 130 0
-66 67 131 0
-67 68 132 0
-68 133 165 0
-69 135 184 0
-70 69 136 0
-71 70 137 0
-72 71 138 0
-73 72 139 0
-74 73 140 0
-75 74 141 0
-76 75 142 0
-184 69 0
-69 70 0
-70 71 0
-71 72 0
-72 73 0
-73 74 0
-74 75 0
-75 76 0
-77 177 0
-78 77 0
-79 78 0
-80 79 0
-81 80 0
-82 81 0
-83 82 0
-166 83 0
-177 77 135 0
-77 78 136 0
-78 79 137 0
-79 80 138 0
-80 81 139 0
-81 82 140 0
-82 83 141 0
-83 142 166 0
-84 144 185 0
-85 84 146 0
-86 85 148 0
-87 86 150 0
-88 87 152 0
-89 88 154 0
-90 89 156 0
-91 90 158 0
-185 84 0
-84 85 0
-85 86 0
-86 87 0
-87 88 0
-88 89 0
-89 90 0
-90 91 0
-92 178 0
-93 92 0
-94 93 0
-95 94 0
-96 95 0
-97 96 0
-98 97 0
-167 98 0
-178 92 144 0
-92 93 146 0
-93 94 148 0
-94 95 150 0
-95 96 152 0
-96 97 154 0
-97 98 156 0
-98 158 167 0
-99 -108 0
-100 -109 0
-101 -110 0
-102 -111 0
-103 -112 0
-104 -113 0
-105 -114 0
-106 -115 0
-107 -116 0
-99 -117 0
-100 -118 0
-101 -119 0
-102 -120 0
-103 -121 0
-104 -122 0
-105 -123 0
-106 -124 0
-107 -125 0
-99 -126 0
-100 -127 0
-101 -128 0
-102 -129 0
-103 -130 0
-104 -131 0
-105 -132 0
-106 -133 0
-107 -134 0
-99 -135 0
-100 -136 0
-101 -137 0
-102 -138 0
-103 -139 0
-104 -140 0
-105 -141 0
-106 -142 0
-107 -143 0
-99 -144 0
-100 -146 0
-101 -148 0
-102 -150 0
-103 -152 0
-104 -154 0
-105 -156 0
-106 -158 0
-107 -160 0
-99 -145 0
-100 -147 0
-101 -149 0
-102 -151 0
-103 -153 0
-104 -155 0
-105 -157 0
-106 -159 0
-107 -161 0
-108 -117 0
-109 -118 0
-110 -119 0
-111 -120 0
-112 -121 0
-113 -122 0
-114 -123 0
-115 -124 0
-116 -125 0
-108 -126 0
-109 -127 0
-110 -128 0
-111 -129 0
-112 -130 0
-113 -131 0
-114 -132 0
-115 -133 0
-116 -134 0
-108 -135 0
-109 -136 0
-110 -137 0
-111 -138 0
-112 -139 0
-113 -140 0
-114 -141 0
-115 -142 0
-116 -143 0
-108 -144 0
-109 -146 0
-110 -148 0
-111 -150 0
-112 -152 0
-113 -154 0
-114 -156 0
-115 -158 0
-116 -160 0
-108 -145 0
-109 -147 0
-110 -149 0
-111 -151 0
-112 -153 0
-113 -155 0
-114 -157 0
-115 -159 0
-116 -161 0
-117 -126 0
-118 -127 0
-119 -128 0
-120 -129 0
-121 -130 0
-122 -131 0
-123 -132 0
-124 -133 0
-125 -134 0
-117 -135 0
-118 -136 0
-119 -137 0
-120 -138 0
-121 -139 0
-122 -140 0
-123 -141 0
-124 -142 0
-125 -143 0
-117 -144 0
-118 -146 0
-119 -148 0
-120 -150 0
-121 -152 0
-122 -154 0
-123 -156 0
-124 -158 0
-125 -160 0
-117 -145 0
-118 -147 0
-119 -149 0
-120 -151 0
-121 -153 0
-122 -155 0
-123 -157 0
-124 -159 0
-125 -161 0
-126 -135 0
-127 -136 0
-128 -137 0
-129 -138 0
-130 -139 0
-131 -140 0
-132 -141 0
-133 -142 0
-134 -143 0
-126 -144 0
-127 -146 0
-128 -148 0
-129 -150 0
-130 -152 0
-131 -154 0
-132 -156 0
-133 -158 0
-134 -160 0
-126 -145 0
-127 -147 0
-128 -149 0
-129 -151 0
-130 -153 0
-131 -155 0
-132 -157 0
-133 -159 0
-134 -161 0
-135 -144 0
-136 -146 0
-137 -148 0
-138 -150 0
-139 -152 0
-140 -154 0
-141 -156 0
-142 -158 0
-143 -160 0
-135 -145 0
-136 -147 0
-137 -149 0
-138 -151 0
-139 -153 0
-140 -155 0
-141 -157 0
-142 -159 0
-143 -161 0
-144 -145 0
-146 -147 0
-148 -149 0
-150 -151 0
-152 -153 0
-154 -155 0
-156 -157 0
-158 -159 0
-160 -161 0
-162 0
-163 0
-164 0
-165 0
-166 0
-167 0
